g3 0 1 0	# problem d6n6R1R6d005d1
 6 6 1 0 1	# vars, constraints, objectives, ranges, eqns
 4 1	# nonlinear constraints, objectives
 0 0	# network constraints: nonlinear, linear
 6 6 6	# nonlinear vars in constraints, objectives, both
 0 0 0 1	# linear network variables; functions; arith, flags
 0 0 0 0 0	# discrete variables: binary, integer, nonlinear (b,c,o)
 36 6	# nonzeros in Jacobian, gradients
 0 0	# max name lengths: constraints, variables
 0 0 0 0 0	# common exprs: b,c,o,c1,o1
b
0 0.79 2.84
0 0.3 2.87
0 0.63 2.54
0 0.12 2.14
0 0.33 2.94
0 0.32 2.51
r
2 65.329
2 38.66
2 119.462
2 838.979
4 46.927
2 37.001
C0
o0
o2
o2
n7.1
v0
v2
o2
o2
n5.34
v0
v5
C1
o0
o2
o2
n0.7
v0
v2
o2
o2
n6.58
v0
v5
C2
o54
6
o2
o2
n0.6
v0
v2
o2
o2
n5.99
v0
v5
o2
o2
o2
o2
n4.49
v0
v1
v4
v5
o2
o2
o2
o2
n1.28
v1
v1
v2
v4
o2
o2
o2
o2
n1.03
v1
v1
v4
v5
o2
o2
o2
o2
n1.41
v1
v4
v5
v5
C3
o54
20
o2
o2
n1.86
v0
v2
o2
o2
n1.46
v0
v5
o2
o2
o2
o2
n9.66
v0
v1
v4
v5
o2
o2
o2
o2
n3.02
v1
v1
v2
v4
o2
o2
o2
o2
n8.54
v1
v1
v4
v5
o16
o2
o2
o2
o2
n4.62
v1
v4
v5
v5
o2
o2
o2
o2
o2
n7.79
v0
v0
v0
v0
v2
o2
o2
o2
o2
o2
n6.91
v0
v0
v0
v0
v5
o2
o2
o2
o2
o2
n5.68
v0
v0
v2
v2
v3
o2
o2
o2
o2
o2
n5.22
v0
v0
v2
v2
v4
o2
o2
o2
o2
o2
n7.74
v0
v1
v1
v1
v5
o2
o2
o2
o2
o2
n6.44
v0
v1
v1
v5
v5
o2
o2
o2
o2
o2
n1.02
v0
v2
v2
v2
v3
o2
o2
o2
o2
o2
n0.18
v0
v3
v3
v3
v5
o2
o2
o2
o2
o2
n7.25
v0
v3
v5
v5
v5
o2
o2
o2
o2
o2
n9.58
v1
v1
v1
v4
v4
o2
o2
o2
o2
o2
n2.64
v1
v2
v4
v4
v5
o16
o2
o2
o2
o2
o2
n2.06
v1
v3
v3
v4
v5
o16
o2
o2
o2
o2
o2
n7.2
v2
v2
v3
v3
v3
o2
o2
o2
o2
o2
n5.36
v2
v2
v4
v4
v5
C4
n0
C5
n0
O0 0
o54
46
o2
o2
n4.44
v0
v2
o2
o2
n2.48
v0
v5
o2
o2
o2
o2
n9.18
v0
v1
v4
v5
o2
o2
o2
o2
n5.44
v1
v1
v2
v4
o2
o2
o2
o2
n7.7
v1
v1
v4
v5
o2
o2
o2
o2
n1.58
v1
v4
v5
v5
o2
o2
o2
o2
o2
n8.71
v0
v0
v0
v0
v2
o2
o2
o2
o2
o2
n5.31
v0
v0
v0
v0
v5
o2
o2
o2
o2
o2
n5.17
v0
v0
v2
v2
v3
o2
o2
o2
o2
o2
n4.86
v0
v0
v2
v2
v4
o2
o2
o2
o2
o2
n6.94
v0
v1
v1
v1
v5
o2
o2
o2
o2
o2
n9.1
v0
v1
v1
v5
v5
o2
o2
o2
o2
o2
n3.85
v0
v2
v2
v2
v3
o2
o2
o2
o2
o2
n7.2
v0
v3
v3
v3
v5
o2
o2
o2
o2
o2
n5.58
v0
v3
v5
v5
v5
o2
o2
o2
o2
o2
n0.42
v1
v1
v1
v4
v4
o2
o2
o2
o2
o2
n0.06
v1
v2
v4
v4
v5
o2
o2
o2
o2
o2
n9.97
v1
v3
v3
v4
v5
o2
o2
o2
o2
o2
n6.86
v2
v2
v3
v3
v3
o2
o2
o2
o2
o2
n0.06
v2
v2
v4
v4
v5
o2
o2
o2
o2
o2
o2
n7.15
v0
v0
v0
v0
v3
v3
o16
o2
o2
o2
o2
o2
o2
n0.21
v0
v0
v0
v1
v3
v3
o2
o2
o2
o2
o2
o2
n6.84
v0
v0
v0
v2
v2
v5
o2
o2
o2
o2
o2
o2
n5.84
v0
v0
v0
v3
v4
v4
o2
o2
o2
o2
o2
o2
n4.42
v0
v0
v1
v1
v4
v5
o2
o2
o2
o2
o2
o2
n1.2
v0
v0
v2
v2
v4
v5
o2
o2
o2
o2
o2
o2
n0.02
v0
v0
v3
v3
v3
v3
o2
o2
o2
o2
o2
o2
n3.78
v0
v1
v3
v4
v5
v5
o2
o2
o2
o2
o2
o2
n7.36
v0
v2
v2
v2
v2
v3
o2
o2
o2
o2
o2
o2
n4.17
v1
v1
v2
v2
v4
v4
o2
o2
o2
o2
o2
o2
n5.09
v1
v1
v3
v5
v5
v5
o2
o2
o2
o2
o2
o2
n0.47
v1
v1
v4
v5
v5
v5
o2
o2
o2
o2
o2
o2
n9.04
v1
v2
v2
v2
v2
v5
o16
o2
o2
o2
o2
o2
o2
n1.33
v1
v2
v3
v3
v3
v3
o16
o2
o2
o2
o2
o2
o2
n2.06
v1
v2
v3
v4
v4
v4
o2
o2
o2
o2
o2
o2
n6.68
v1
v2
v4
v4
v4
v5
o16
o2
o2
o2
o2
o2
o2
n2.86
v1
v2
v4
v5
v5
v5
o2
o2
o2
o2
o2
o2
n0.14
v1
v3
v3
v3
v3
v4
o2
o2
o2
o2
o2
o2
n0.57
v1
v5
v5
v5
v5
v5
o2
o2
o2
o2
o2
o2
n2.29
v2
v2
v3
v4
v4
v5
o2
o2
o2
o2
o2
o2
n6.46
v2
v2
v5
v5
v5
v5
o2
o2
o2
o2
o2
o2
n8.78
v2
v3
v3
v3
v4
v4
o2
o2
o2
o2
o2
o2
n9.44
v2
v3
v4
v4
v4
v5
o2
o2
o2
o2
o2
o2
n2.38
v2
v3
v4
v4
v5
v5
o2
o2
o2
o2
o2
o2
n6.91
v4
v4
v4
v4
v4
v4
o2
o2
o2
o2
o2
o2
n2.96
v4
v4
v4
v4
v5
v5
k5
6
12
18
24
30
J0 6
0 6.74
1 3.47
2 2.41
3 5.22
4 1.04
5 1.44
J1 6
0 -6.6
1 5.68
2 8.15
3 -8.04
4 7.08
5 5.17
J2 6
0 7.4
1 2.8
2 7.38
3 4.58
4 7.86
5 2.29
J3 6
0 5.61
1 0.84
2 2.26
3 0.65
4 4.74
5 1.07
J4 6
0 2.4
1 2.06
2 7.19
3 8.19
4 9.22
5 2.53
J5 6
0 9.79
1 4.68
2 3.43
3 6
4 0.55
5 -0.92
G0 6
0 0.77
1 8.32
2 1.28
3 1.08
4 5.08
5 4.41
